************************************************************************
file with basedata            : cm512_.bas
initial value random generator: 1232074802
************************************************************************
projects                      :  1
jobs (incl. supersource/sink ):  18
horizon                       :  141
RESOURCES
  - renewable                 :  2   R
  - nonrenewable              :  2   N
  - doubly constrained        :  0   D
************************************************************************
PROJECT INFORMATION:
pronr.  #jobs rel.date duedate tardcost  MPM-Time
    1     16      0       13       11       13
************************************************************************
PRECEDENCE RELATIONS:
jobnr.    #modes  #successors   successors
   1        1          3           2   3   4
   2        5          2           5  13
   3        5          3           7   9  11
   4        5          2          11  13
   5        5          2           6   7
   6        5          3           8  12  17
   7        5          3           8  14  15
   8        5          1          16
   9        5          3          10  12  14
  10        5          2          15  17
  11        5          1          12
  12        5          1          16
  13        5          3          14  15  16
  14        5          1          17
  15        5          1          18
  16        5          1          18
  17        5          1          18
  18        1          0        
************************************************************************
REQUESTS/DURATIONS:
jobnr. mode duration  R 1  R 2  N 1  N 2
------------------------------------------------------------------------
  1      1     0       0    0    0    0
  2      1     2       0    4    4    0
         2     7       0    3    0    7
         3     7       3    0    4    0
         4     8       0    3    0    6
         5     8       1    0    0    7
  3      1     3       7    0    0    5
         2     3       0    7    0    5
         3     5       0    5    9    0
         4     5       8    0    7    0
         5     9       7    0    7    0
  4      1     1       0    8    0    7
         2     4       0    7    0    7
         3     6      10    0    0    7
         4     7       8    0    9    0
         5     7       0    7    9    0
  5      1     3       5    0    0    9
         2     4       0    7    0    9
         3     6       0    6    0    8
         4     9       5    0   10    0
         5    10       0    3    2    0
  6      1     2       4    0    0    7
         2     3       0    8    9    0
         3     3       0    9    0    4
         4     4       3    0    0    4
         5     9       3    0    8    0
  7      1     1       0    7    6    0
         2     4       3    0    0    8
         3     4       0    7    5    0
         4     6       0    7    0   10
         5     8       3    0    4    0
  8      1     3       4    0    0    6
         2     3       4    0    7    0
         3     3       3    0    0    7
         4     9       3    0    0    6
         5    10       2    0    0    5
  9      1     3       7    0    9    0
         2     3       0    7   10    0
         3     7       0    6    6    0
         4     8       8    0    0    7
         5     9       0    4    4    0
 10      1     4       6    0    7    0
         2     6       4    0    0    7
         3     9       4    0    0    5
         4     9       0    6    0    4
         5    10       0    5    5    0
 11      1     4       0    7    0    8
         2     7       3    0    0    8
         3     9       3    0    8    0
         4     9       0    3    5    0
         5     9       0    5    0    7
 12      1     3       0    8    0    7
         2     5       0    7    7    0
         3     7       0    7    6    0
         4     7       9    0    0    6
         5    10       9    0    0    5
 13      1     2       0    9    0    7
         2     3       0    8    0    6
         3     4       8    0    0    6
         4     9       0    7    5    0
         5     9       7    0    5    0
 14      1     4       5    0    0    5
         2     4       5    0    2    0
         3     5       0    9    0    5
         4    10       0    5    1    0
         5    10       4    0    1    0
 15      1     3       9    0    0    4
         2     4       8    0    0    2
         3     4       0    7   10    0
         4     7       0    5    9    0
         5    10       8    0    7    0
 16      1     1       0    4    0    7
         2     2       0    4    0    5
         3     2       0    4    8    0
         4     3       8    0    0    5
         5     4       0    1    0    4
 17      1     2       0    6    0    7
         2     4       0    5    7    0
         3     5      10    0    0    6
         4     8       0    4    2    0
         5     9       1    0    0    6
 18      1     0       0    0    0    0
************************************************************************
RESOURCEAVAILABILITIES:
  R 1  R 2  N 1  N 2
   28   30   59   56
************************************************************************
